50, 62425
2551, 198
2552, 169
2553, 938
2554, 39
2555, 639
2556, 483
2557, 927
2558, 751
2559, 615
2560, 616
2561, 676
2562, 593
2563, 96
2564, 839
2565, 509
2566, 225
2567, 893
2568, 599
2569, 796
2570, 883
2571, 466
2572, 904
2573, 937
2574, 173
2575, 503
2576, 694
2577, 16
2578, 368
2579, 580
2580, 719
2581, 384
2582, 102
2583, 884
2584, 825
2585, 184
2586, 338
2587, 340
2588, 927
2589, 978
2590, 837
2591, 346
2592, 211
2593, 970
2594, 21
2595, 304
2596, 954
2597, 854
2598, 709
2599, 72
2600, 101
